p wcnf 177 354 355 
1 -155 25 0 
1 -160 80 0 
1 -170 -160 0 
1 -159 -8 0 
1 -80 -57 0 
1 95 99 0 
1 27 137 0 
1 -17 119 0 
1 -41 4 0 
1 -94 -90 0 
1 3 130 0 
1 -130 92 0 
1 102 157 0 
1 90 140 0 
1 -103 -118 0 
1 23 -77 0 
1 99 -65 0 
1 -143 23 0 
1 -32 157 0 
1 -140 38 0 
1 151 -160 0 
1 -57 -83 0 
1 46 70 0 
1 -169 157 0 
1 131 40 0 
1 63 153 0 
1 -14 27 0 
1 -42 141 0 
1 -98 42 0 
1 177 120 0 
1 -12 8 0 
1 21 -140 0 
1 -62 -37 0 
1 145 -85 0 
1 -172 -97 0 
1 -62 144 0 
1 46 60 0 
1 100 38 0 
1 -43 36 0 
1 -25 -118 0 
1 16 128 0 
1 -72 109 0 
1 -76 140 0 
1 -85 -122 0 
1 120 82 0 
1 86 142 0 
1 -177 -30 0 
1 -81 -43 0 
1 82 114 0 
1 -76 -153 0 
1 126 57 0 
1 91 -148 0 
1 -172 164 0 
1 46 113 0 
1 8 -65 0 
1 146 -97 0 
1 -9 -125 0 
1 -82 -166 0 
1 -67 89 0 
1 -113 -7 0 
1 49 -160 0 
1 -170 161 0 
1 27 100 0 
1 -16 82 0 
1 115 -18 0 
1 -37 82 0 
1 -148 -109 0 
1 -125 129 0 
1 81 -135 0 
1 -119 -104 0 
1 -169 83 0 
1 142 -149 0 
1 118 90 0 
1 48 156 0 
1 126 -104 0 
1 -168 -159 0 
1 33 -17 0 
1 52 -170 0 
1 -68 -130 0 
1 117 -116 0 
1 102 12 0 
1 -50 154 0 
1 -15 25 0 
1 170 -87 0 
1 -14 -7 0 
1 58 45 0 
1 -155 86 0 
1 121 65 0 
1 -158 -50 0 
1 175 -145 0 
1 107 128 0 
1 -100 -11 0 
1 105 -49 0 
1 10 64 0 
1 47 171 0 
1 -22 79 0 
1 -144 160 0 
1 108 -147 0 
1 46 106 0 
1 155 118 0 
1 19 3 0 
1 147 78 0 
1 109 136 0 
1 22 166 0 
1 -52 116 0 
1 167 10 0 
1 127 -42 0 
1 -101 157 0 
1 159 104 0 
1 -177 -14 0 
1 -112 62 0 
1 -68 -119 0 
1 -43 -101 0 
1 119 -127 0 
1 45 -32 0 
1 123 141 0 
1 -155 58 0 
1 -149 50 0 
1 -113 -31 0 
1 -153 -139 0 
1 -20 -11 0 
1 -170 110 0 
1 -66 54 0 
1 -144 -54 0 
1 112 -105 0 
1 123 -7 0 
1 -129 45 0 
1 107 65 0 
1 -17 -130 0 
1 174 -138 0 
1 123 -91 0 
1 -27 -96 0 
1 -17 34 0 
1 -85 147 0 
1 154 37 0 
1 175 82 0 
1 -83 -159 0 
1 64 -170 0 
1 -158 114 0 
1 8 -103 0 
1 -13 -29 0 
1 -103 113 0 
1 -166 152 0 
1 54 108 0 
1 30 135 0 
1 25 71 0 
1 -141 -83 0 
1 26 -114 0 
1 -52 51 0 
1 151 -96 0 
1 161 -56 0 
1 -121 -58 0 
1 162 112 0 
1 62 90 0 
1 148 -153 0 
1 11 -71 0 
1 -143 -61 0 
1 -17 -79 0 
1 -143 1 0 
1 -68 -105 0 
1 -10 148 0 
1 105 29 0 
1 99 49 0 
1 -83 -3 0 
1 44 -40 0 
1 -59 -30 0 
1 -150 -51 0 
1 -2 41 0 
1 -158 95 0 
1 -147 128 0 
1 -153 164 0 
1 -131 -136 0 
1 112 109 0 
1 51 -153 0 
1 153 -174 0 
1 148 -154 0 
1 -95 -174 0 
1 116 97 0 
1 -40 12 0 
1 -21 124 0 
1 -145 -113 0 
1 -28 162 0 
1 -108 77 0 
1 121 -92 0 
1 122 -151 0 
1 -162 -146 0 
1 -61 12 0 
1 -15 -146 0 
1 112 -106 0 
1 40 38 0 
1 164 23 0 
1 68 -40 0 
1 114 -20 0 
1 -15 -89 0 
1 -39 55 0 
1 -145 32 0 
1 102 169 0 
1 -153 10 0 
1 137 55 0 
1 90 112 0 
1 10 -32 0 
1 167 61 0 
1 131 -75 0 
1 -149 101 0 
1 -115 68 0 
1 -176 -12 0 
1 66 -13 0 
1 115 29 0 
1 40 6 0 
1 -63 -169 0 
1 -126 134 0 
1 93 -83 0 
1 82 119 0 
1 36 -162 0 
1 -89 126 0 
1 -175 -53 0 
1 -30 -89 0 
1 -84 -105 0 
1 -71 -26 0 
1 -9 168 0 
1 158 -101 0 
1 146 26 0 
1 90 52 0 
1 -140 -15 0 
1 -50 -147 0 
1 -52 158 0 
1 156 6 0 
1 62 136 0 
1 -102 4 0 
1 -6 21 0 
1 -83 76 0 
1 -21 89 0 
1 -26 -98 0 
1 -63 -144 0 
1 156 132 0 
1 -95 -35 0 
1 -151 158 0 
1 -24 163 0 
1 82 -164 0 
1 10 -106 0 
1 -129 -48 0 
1 161 41 0 
1 94 -80 0 
1 47 -76 0 
1 25 6 0 
1 -36 7 0 
1 16 169 0 
1 -4 2 0 
1 21 -161 0 
1 -138 -172 0 
1 46 -13 0 
1 36 60 0 
1 120 93 0 
1 137 -77 0 
1 177 -4 0 
1 171 -46 0 
1 116 -55 0 
1 -144 -42 0 
1 -89 -125 0 
1 82 141 0 
1 -97 11 0 
1 83 119 0 
1 43 89 0 
1 116 102 0 
1 162 60 0 
1 138 -95 0 
1 -124 96 0 
1 7 -87 0 
1 -154 -81 0 
1 120 173 0 
1 5 47 0 
1 75 154 0 
1 175 164 0 
1 18 -126 0 
1 -169 -2 0 
1 -37 -141 0 
1 -103 -7 0 
1 152 -158 0 
1 -97 -63 0 
1 -44 174 0 
1 65 -71 0 
1 -97 2 0 
1 -172 68 0 
1 -40 -125 0 
1 -129 -17 0 
1 -139 -37 0 
1 150 -37 0 
1 79 -155 0 
1 -153 43 0 
1 -24 -105 0 
1 134 118 0 
1 123 18 0 
1 96 17 0 
1 155 -88 0 
1 136 -124 0 
1 -134 -62 0 
1 114 81 0 
1 -102 56 0 
1 -80 -9 0 
1 73 -150 0 
1 -135 -50 0 
1 -160 -69 0 
1 47 -65 0 
1 -105 80 0 
1 168 24 0 
1 -92 -36 0 
1 -58 13 0 
1 40 46 0 
1 37 110 0 
1 -26 157 0 
1 172 -142 0 
1 -114 96 0 
1 -173 69 0 
1 99 12 0 
1 38 -79 0 
1 -16 69 0 
1 -134 131 0 
1 163 -104 0 
1 61 104 0 
1 -115 137 0 
1 52 -53 0 
1 84 -110 0 
1 165 -172 0 
1 136 46 0 
1 116 28 0 
1 71 53 0 
1 -177 84 0 
1 -16 83 0 
1 78 151 0 
1 133 160 0 
1 -144 27 0 
1 122 -9 0 
1 150 -7 0 
1 -129 61 0 
1 -126 89 0 
1 109 -21 0 
1 -122 95 0 
1 65 86 0 
1 9 -24 0 
1 159 93 0 
1 14 -102 0 
1 28 149 0 
1 -13 -141 0 
1 -113 129 0 
1 -80 127 0 
1 13 -100 0 
1 136 172 0 
1 -20 125 0 
1 162 -84 0 
1 21 -157 0 
1 95 32 0 
1 155 -90 0 
1 114 -110 0 
1 78 122 0 
